200
150
100
100
97
97
97
96
96
96
96
95
95
95
95
95
94
94
92
92
91
91
90
89
87
86
86
86
86
85
84
84
84
84
83
83
81
81
81
80
78
77
77
76
75
75
74
74
73
73
73
72
71
71
71
70
70
69
68
66
65
65
64
64
64
64
63
63
63
62
61
61
61
60
60
60
60
59
58
58
58
58
58
58
57
57
55
55
55
54
54
53
52
52
51
51
51
51
51
51
50
49
49
49
48
47
46
46
45
45
44
44
44
43
43
43
41
41
40
40
40
39
37
36
36
35
35
35
35
34
34
34
33
32
31
31
30
30
30
29
29
28
28
27
27
27
27
25
25
24
23
22
22
21
21
21
21
21
21
21
20
19
18
17
17
16
16
15
15
14
14
13
13
13
13
13
12
11
10
9
9
8
8
6
6
5
5
5
5
4
4
4
3
3
3
2
2
2
1
1
1
1
